c 0.0053369998931884766 (encode time in sec)
p cnf 89 548
1 2 3 0
1 -2 3 0
-1 2 4 0
-1 -2 5 0
6 7 8 9 0
6 7 -8 13 0
6 -7 8 12 0
6 -7 -8 11 0
-6 7 8 10 0
-6 7 -8 0
-6 -7 8 0
-6 -7 -8 0
14 15 16 0
14 -15 19 0
-14 15 17 0
-14 -15 18 0
20 21 1 2 6 7 8 22 0
20 21 1 2 6 7 -8 23 0
20 21 1 2 6 -7 8 22 0
20 21 1 2 6 -7 -8 24 0
20 21 1 2 -6 7 8 37 0
20 21 1 -2 6 7 8 25 0
20 21 1 -2 6 7 -8 26 0
20 21 1 -2 6 -7 8 27 0
20 21 1 -2 6 -7 -8 24 0
20 21 1 -2 -6 7 8 28 0
20 21 -1 2 6 7 8 23 0
20 21 -1 2 6 7 -8 22 0
20 21 -1 2 6 -7 8 29 0
20 21 -1 2 6 -7 -8 44 0
20 21 -1 2 -6 7 8 39 0
20 21 -1 -2 6 7 8 42 0
20 21 -1 -2 6 7 -8 26 0
20 21 -1 -2 6 -7 8 37 0
20 21 -1 -2 6 -7 -8 28 0
20 21 -1 -2 -6 7 8 39 0
20 -21 1 2 6 7 8 28 0
20 -21 1 2 6 7 -8 24 0
20 -21 1 2 6 -7 8 28 0
20 -21 1 2 6 -7 -8 23 0
20 -21 1 2 -6 7 8 33 0
20 -21 1 -2 6 7 8 38 0
20 -21 1 -2 6 7 -8 26 0
20 -21 1 -2 6 -7 8 30 0
20 -21 1 -2 6 -7 -8 31 0
20 -21 1 -2 -6 7 8 46 0
20 -21 -1 2 6 7 8 24 0
20 -21 -1 2 6 7 -8 28 0
20 -21 -1 2 6 -7 8 47 0
20 -21 -1 2 6 -7 -8 47 0
20 -21 -1 2 -6 7 8 34 0
20 -21 -1 -2 6 7 8 42 0
20 -21 -1 -2 6 7 -8 26 0
20 -21 -1 -2 6 -7 8 45 0
20 -21 -1 -2 6 -7 -8 28 0
20 -21 -1 -2 -6 7 8 39 0
-20 21 1 2 6 7 8 28 0
-20 21 1 2 6 7 -8 24 0
-20 21 1 2 6 -7 8 28 0
-20 21 1 2 6 -7 -8 24 0
-20 21 1 2 -6 7 8 43 0
-20 21 1 -2 6 7 8 38 0
-20 21 1 -2 6 7 -8 26 0
-20 21 1 -2 6 -7 8 30 0
-20 21 1 -2 6 -7 -8 40 0
-20 21 1 -2 -6 7 8 28 0
-20 21 -1 2 6 7 8 24 0
-20 21 -1 2 6 7 -8 28 0
-20 21 -1 2 6 -7 8 44 0
-20 21 -1 2 6 -7 -8 29 0
-20 21 -1 2 -6 7 8 25 0
-20 21 -1 -2 6 7 8 38 0
-20 21 -1 -2 6 7 -8 26 0
-20 21 -1 -2 6 -7 8 37 0
-20 21 -1 -2 6 -7 -8 41 0
-20 21 -1 -2 -6 7 8 36 0
-20 -21 1 2 6 7 8 28 0
-20 -21 1 2 6 7 -8 24 0
-20 -21 1 2 6 -7 8 28 0
-20 -21 1 2 6 -7 -8 24 0
-20 -21 1 2 -6 7 8 37 0
-20 -21 1 -2 6 7 8 38 0
-20 -21 1 -2 6 7 -8 26 0
-20 -21 1 -2 6 -7 8 30 0
-20 -21 1 -2 6 -7 -8 40 0
-20 -21 1 -2 -6 7 8 41 0
-20 -21 -1 2 6 7 8 24 0
-20 -21 -1 2 6 7 -8 28 0
-20 -21 -1 2 6 -7 8 44 0
-20 -21 -1 2 6 -7 -8 44 0
-20 -21 -1 2 -6 7 8 42 0
-20 -21 -1 -2 6 7 8 38 0
-20 -21 -1 -2 6 7 -8 26 0
-20 -21 -1 -2 6 -7 8 32 0
-20 -21 -1 -2 6 -7 -8 46 0
-20 -21 -1 -2 -6 7 8 35 0
48 49 50 51 52 14 15 20 21 83 0
48 49 50 51 52 14 15 20 -21 89 0
48 49 50 51 52 14 15 -20 21 53 0
48 49 50 51 52 14 15 -20 -21 71 0
48 49 50 51 52 14 -15 20 21 72 0
48 49 50 51 52 14 -15 20 -21 73 0
48 49 50 51 52 14 -15 -20 21 66 0
48 49 50 51 52 14 -15 -20 -21 74 0
48 49 50 51 52 -14 15 20 21 54 0
48 49 50 51 52 -14 15 20 -21 81 0
48 49 50 51 52 -14 15 -20 21 84 0
48 49 50 51 52 -14 15 -20 -21 88 0
48 49 50 51 52 -14 -15 20 21 84 0
48 49 50 51 52 -14 -15 20 -21 89 0
48 49 50 51 52 -14 -15 -20 21 84 0
48 49 50 51 52 -14 -15 -20 -21 74 0
48 49 50 51 -52 14 15 20 21 75 0
48 49 50 51 -52 14 15 20 -21 89 0
48 49 50 51 -52 14 15 -20 21 53 0
48 49 50 51 -52 14 15 -20 -21 71 0
48 49 50 51 -52 14 -15 20 21 88 0
48 49 50 51 -52 14 -15 20 -21 73 0
48 49 50 51 -52 14 -15 -20 21 66 0
48 49 50 51 -52 14 -15 -20 -21 74 0
48 49 50 51 -52 -14 15 20 21 57 0
48 49 50 51 -52 -14 15 20 -21 81 0
48 49 50 51 -52 -14 15 -20 21 84 0
48 49 50 51 -52 -14 15 -20 -21 88 0
48 49 50 51 -52 -14 -15 20 21 84 0
48 49 50 51 -52 -14 -15 20 -21 89 0
48 49 50 51 -52 -14 -15 -20 21 84 0
48 49 50 51 -52 -14 -15 -20 -21 74 0
48 49 50 -51 52 14 15 20 21 83 0
48 49 50 -51 52 14 15 20 -21 89 0
48 49 50 -51 52 14 15 -20 21 53 0
48 49 50 -51 52 14 15 -20 -21 71 0
48 49 50 -51 52 14 -15 20 21 72 0
48 49 50 -51 52 14 -15 20 -21 73 0
48 49 50 -51 52 14 -15 -20 21 66 0
48 49 50 -51 52 14 -15 -20 -21 74 0
48 49 50 -51 52 -14 15 20 21 54 0
48 49 50 -51 52 -14 15 20 -21 81 0
48 49 50 -51 52 -14 15 -20 21 84 0
48 49 50 -51 52 -14 15 -20 -21 88 0
48 49 50 -51 52 -14 -15 20 21 77 0
48 49 50 -51 52 -14 -15 20 -21 89 0
48 49 50 -51 52 -14 -15 -20 21 84 0
48 49 50 -51 52 -14 -15 -20 -21 74 0
48 49 50 -51 -52 14 15 20 21 83 0
48 49 50 -51 -52 14 15 20 -21 89 0
48 49 50 -51 -52 14 15 -20 21 53 0
48 49 50 -51 -52 14 15 -20 -21 71 0
48 49 50 -51 -52 14 -15 20 21 88 0
48 49 50 -51 -52 14 -15 20 -21 73 0
48 49 50 -51 -52 14 -15 -20 21 66 0
48 49 50 -51 -52 14 -15 -20 -21 74 0
48 49 50 -51 -52 -14 15 20 21 55 0
48 49 50 -51 -52 -14 15 20 -21 81 0
48 49 50 -51 -52 -14 15 -20 21 84 0
48 49 50 -51 -52 -14 15 -20 -21 88 0
48 49 50 -51 -52 -14 -15 20 21 84 0
48 49 50 -51 -52 -14 -15 20 -21 89 0
48 49 50 -51 -52 -14 -15 -20 21 84 0
48 49 50 -51 -52 -14 -15 -20 -21 74 0
48 49 -50 51 52 14 15 20 21 83 0
48 49 -50 51 52 14 15 20 -21 89 0
48 49 -50 51 52 14 15 -20 21 53 0
48 49 -50 51 52 14 15 -20 -21 71 0
48 49 -50 51 52 14 -15 20 21 67 0
48 49 -50 51 52 14 -15 20 -21 73 0
48 49 -50 51 52 14 -15 -20 21 66 0
48 49 -50 51 52 14 -15 -20 -21 74 0
48 49 -50 51 52 -14 15 20 21 56 0
48 49 -50 51 52 -14 15 20 -21 81 0
48 49 -50 51 52 -14 15 -20 21 84 0
48 49 -50 51 52 -14 15 -20 -21 88 0
48 49 -50 51 52 -14 -15 20 21 77 0
48 49 -50 51 52 -14 -15 20 -21 89 0
48 49 -50 51 52 -14 -15 -20 21 84 0
48 49 -50 51 52 -14 -15 -20 -21 74 0
48 49 -50 51 -52 14 15 20 21 83 0
48 49 -50 51 -52 14 15 20 -21 89 0
48 49 -50 51 -52 14 15 -20 21 53 0
48 49 -50 51 -52 14 15 -20 -21 71 0
48 49 -50 51 -52 14 -15 20 21 88 0
48 49 -50 51 -52 14 -15 20 -21 73 0
48 49 -50 51 -52 14 -15 -20 21 66 0
48 49 -50 51 -52 14 -15 -20 -21 74 0
48 49 -50 51 -52 -14 15 20 21 54 0
48 49 -50 51 -52 -14 15 20 -21 81 0
48 49 -50 51 -52 -14 15 -20 21 84 0
48 49 -50 51 -52 -14 15 -20 -21 88 0
48 49 -50 51 -52 -14 -15 20 21 77 0
48 49 -50 51 -52 -14 -15 20 -21 89 0
48 49 -50 51 -52 -14 -15 -20 21 84 0
48 49 -50 51 -52 -14 -15 -20 -21 74 0
48 49 -50 -51 52 14 15 20 21 83 0
48 49 -50 -51 52 14 15 20 -21 76 0
48 49 -50 -51 52 14 15 -20 21 53 0
48 49 -50 -51 52 14 15 -20 -21 71 0
48 49 -50 -51 52 14 -15 20 21 88 0
48 49 -50 -51 52 14 -15 20 -21 58 0
48 49 -50 -51 52 14 -15 -20 21 66 0
48 49 -50 -51 52 14 -15 -20 -21 74 0
48 49 -50 -51 52 -14 15 20 21 54 0
48 49 -50 -51 52 -14 15 20 -21 81 0
48 49 -50 -51 52 -14 15 -20 21 84 0
48 49 -50 -51 52 -14 15 -20 -21 88 0
48 49 -50 -51 52 -14 -15 20 21 77 0
48 49 -50 -51 52 -14 -15 20 -21 89 0
48 49 -50 -51 52 -14 -15 -20 21 84 0
48 49 -50 -51 52 -14 -15 -20 -21 74 0
48 49 -50 -51 -52 14 15 20 21 83 0
48 49 -50 -51 -52 14 15 20 -21 89 0
48 49 -50 -51 -52 14 15 -20 21 53 0
48 49 -50 -51 -52 14 15 -20 -21 71 0
48 49 -50 -51 -52 14 -15 20 21 88 0
48 49 -50 -51 -52 14 -15 20 -21 73 0
48 49 -50 -51 -52 14 -15 -20 21 66 0
48 49 -50 -51 -52 14 -15 -20 -21 74 0
48 49 -50 -51 -52 -14 15 20 21 56 0
48 49 -50 -51 -52 -14 15 20 -21 81 0
48 49 -50 -51 -52 -14 15 -20 21 84 0
48 49 -50 -51 -52 -14 15 -20 -21 88 0
48 49 -50 -51 -52 -14 -15 20 21 68 0
48 49 -50 -51 -52 -14 -15 20 -21 89 0
48 49 -50 -51 -52 -14 -15 -20 21 84 0
48 49 -50 -51 -52 -14 -15 -20 -21 74 0
48 -49 50 51 52 14 15 20 21 83 0
48 -49 50 51 52 14 15 20 -21 89 0
48 -49 50 51 52 14 15 -20 21 53 0
48 -49 50 51 52 14 15 -20 -21 71 0
48 -49 50 51 52 14 -15 20 21 88 0
48 -49 50 51 52 14 -15 20 -21 58 0
48 -49 50 51 52 14 -15 -20 21 66 0
48 -49 50 51 52 14 -15 -20 -21 74 0
48 -49 50 51 52 -14 15 20 21 56 0
48 -49 50 51 52 -14 15 20 -21 81 0
48 -49 50 51 52 -14 15 -20 21 84 0
48 -49 50 51 52 -14 15 -20 -21 88 0
48 -49 50 51 52 -14 -15 20 21 77 0
48 -49 50 51 52 -14 -15 20 -21 89 0
48 -49 50 51 52 -14 -15 -20 21 84 0
48 -49 50 51 52 -14 -15 -20 -21 74 0
48 -49 50 51 -52 14 15 20 21 83 0
48 -49 50 51 -52 14 15 20 -21 85 0
48 -49 50 51 -52 14 15 -20 21 53 0
48 -49 50 51 -52 14 15 -20 -21 71 0
48 -49 50 51 -52 14 -15 20 21 88 0
48 -49 50 51 -52 14 -15 20 -21 58 0
48 -49 50 51 -52 14 -15 -20 21 66 0
48 -49 50 51 -52 14 -15 -20 -21 74 0
48 -49 50 51 -52 -14 15 20 21 56 0
48 -49 50 51 -52 -14 15 20 -21 69 0
48 -49 50 51 -52 -14 15 -20 21 84 0
48 -49 50 51 -52 -14 15 -20 -21 88 0
48 -49 50 51 -52 -14 -15 20 21 77 0
48 -49 50 51 -52 -14 -15 20 -21 89 0
48 -49 50 51 -52 -14 -15 -20 21 84 0
48 -49 50 51 -52 -14 -15 -20 -21 74 0
48 -49 50 -51 52 14 15 20 21 83 0
48 -49 50 -51 52 14 15 20 -21 85 0
48 -49 50 -51 52 14 15 -20 21 53 0
48 -49 50 -51 52 14 15 -20 -21 71 0
48 -49 50 -51 52 14 -15 20 21 88 0
48 -49 50 -51 52 14 -15 20 -21 78 0
48 -49 50 -51 52 14 -15 -20 21 66 0
48 -49 50 -51 52 14 -15 -20 -21 74 0
48 -49 50 -51 52 -14 15 20 21 56 0
48 -49 50 -51 52 -14 15 20 -21 69 0
48 -49 50 -51 52 -14 15 -20 21 84 0
48 -49 50 -51 52 -14 15 -20 -21 88 0
48 -49 50 -51 52 -14 -15 20 21 84 0
48 -49 50 -51 52 -14 -15 20 -21 89 0
48 -49 50 -51 52 -14 -15 -20 21 84 0
48 -49 50 -51 52 -14 -15 -20 -21 74 0
48 -49 50 -51 -52 14 15 20 21 83 0
48 -49 50 -51 -52 14 15 20 -21 89 0
48 -49 50 -51 -52 14 15 -20 21 53 0
48 -49 50 -51 -52 14 15 -20 -21 71 0
48 -49 50 -51 -52 14 -15 20 21 88 0
48 -49 50 -51 -52 14 -15 20 -21 73 0
48 -49 50 -51 -52 14 -15 -20 21 66 0
48 -49 50 -51 -52 14 -15 -20 -21 74 0
48 -49 50 -51 -52 -14 15 20 21 56 0
48 -49 50 -51 -52 -14 15 20 -21 59 0
48 -49 50 -51 -52 -14 15 -20 21 84 0
48 -49 50 -51 -52 -14 15 -20 -21 88 0
48 -49 50 -51 -52 -14 -15 20 21 84 0
48 -49 50 -51 -52 -14 -15 20 -21 89 0
48 -49 50 -51 -52 -14 -15 -20 21 84 0
48 -49 50 -51 -52 -14 -15 -20 -21 74 0
48 -49 -50 51 52 14 15 20 21 83 0
48 -49 -50 51 52 14 15 20 -21 89 0
48 -49 -50 51 52 14 15 -20 21 53 0
48 -49 -50 51 52 14 15 -20 -21 71 0
48 -49 -50 51 52 14 -15 20 21 88 0
48 -49 -50 51 52 14 -15 20 -21 60 0
48 -49 -50 51 52 14 -15 -20 21 66 0
48 -49 -50 51 52 14 -15 -20 -21 74 0
48 -49 -50 51 52 -14 15 20 21 56 0
48 -49 -50 51 52 -14 15 20 -21 59 0
48 -49 -50 51 52 -14 15 -20 21 84 0
48 -49 -50 51 52 -14 15 -20 -21 88 0
48 -49 -50 51 52 -14 -15 20 21 84 0
48 -49 -50 51 52 -14 -15 20 -21 85 0
48 -49 -50 51 52 -14 -15 -20 21 84 0
48 -49 -50 51 52 -14 -15 -20 -21 74 0
48 -49 -50 51 -52 14 15 20 21 83 0
48 -49 -50 51 -52 14 15 20 -21 89 0
48 -49 -50 51 -52 14 15 -20 21 61 0
48 -49 -50 51 -52 14 15 -20 -21 71 0
48 -49 -50 51 -52 14 -15 20 21 88 0
48 -49 -50 51 -52 14 -15 20 -21 73 0
48 -49 -50 51 -52 14 -15 -20 21 66 0
48 -49 -50 51 -52 14 -15 -20 -21 74 0
48 -49 -50 51 -52 -14 15 20 21 56 0
48 -49 -50 51 -52 -14 15 20 -21 69 0
48 -49 -50 51 -52 -14 15 -20 21 84 0
48 -49 -50 51 -52 -14 15 -20 -21 88 0
48 -49 -50 51 -52 -14 -15 20 21 84 0
48 -49 -50 51 -52 -14 -15 20 -21 86 0
48 -49 -50 51 -52 -14 -15 -20 21 84 0
48 -49 -50 51 -52 -14 -15 -20 -21 74 0
48 -49 -50 -51 52 14 15 20 21 83 0
48 -49 -50 -51 52 14 15 20 -21 89 0
48 -49 -50 -51 52 14 15 -20 21 53 0
48 -49 -50 -51 52 14 15 -20 -21 71 0
48 -49 -50 -51 52 14 -15 20 21 88 0
48 -49 -50 -51 52 14 -15 20 -21 73 0
48 -49 -50 -51 52 14 -15 -20 21 66 0
48 -49 -50 -51 52 14 -15 -20 -21 74 0
48 -49 -50 -51 52 -14 15 20 21 56 0
48 -49 -50 -51 52 -14 15 20 -21 59 0
48 -49 -50 -51 52 -14 15 -20 21 84 0
48 -49 -50 -51 52 -14 15 -20 -21 88 0
48 -49 -50 -51 52 -14 -15 20 21 84 0
48 -49 -50 -51 52 -14 -15 20 -21 85 0
48 -49 -50 -51 52 -14 -15 -20 21 84 0
48 -49 -50 -51 52 -14 -15 -20 -21 74 0
48 -49 -50 -51 -52 14 15 20 21 83 0
48 -49 -50 -51 -52 14 15 20 -21 89 0
48 -49 -50 -51 -52 14 15 -20 21 62 0
48 -49 -50 -51 -52 14 15 -20 -21 71 0
48 -49 -50 -51 -52 14 -15 20 21 88 0
48 -49 -50 -51 -52 14 -15 20 -21 73 0
48 -49 -50 -51 -52 14 -15 -20 21 70 0
48 -49 -50 -51 -52 14 -15 -20 -21 74 0
48 -49 -50 -51 -52 -14 15 20 21 56 0
48 -49 -50 -51 -52 -14 15 20 -21 59 0
48 -49 -50 -51 -52 -14 15 -20 21 84 0
48 -49 -50 -51 -52 -14 15 -20 -21 88 0
48 -49 -50 -51 -52 -14 -15 20 21 84 0
48 -49 -50 -51 -52 -14 -15 20 -21 89 0
48 -49 -50 -51 -52 -14 -15 -20 21 84 0
48 -49 -50 -51 -52 -14 -15 -20 -21 74 0
-48 49 50 51 52 14 15 20 21 83 0
-48 49 50 51 52 14 15 20 -21 89 0
-48 49 50 51 52 14 15 -20 21 62 0
-48 49 50 51 52 14 15 -20 -21 71 0
-48 49 50 51 52 14 -15 20 21 88 0
-48 49 50 51 52 14 -15 20 -21 73 0
-48 49 50 51 52 14 -15 -20 21 66 0
-48 49 50 51 52 14 -15 -20 -21 74 0
-48 49 50 51 52 -14 15 20 21 56 0
-48 49 50 51 52 -14 15 20 -21 81 0
-48 49 50 51 52 -14 15 -20 21 84 0
-48 49 50 51 52 -14 15 -20 -21 88 0
-48 49 50 51 52 -14 -15 20 21 84 0
-48 49 50 51 52 -14 -15 20 -21 85 0
-48 49 50 51 52 -14 -15 -20 21 84 0
-48 49 50 51 52 -14 -15 -20 -21 74 0
-48 49 50 51 -52 14 15 20 21 83 0
-48 49 50 51 -52 14 15 20 -21 89 0
-48 49 50 51 -52 14 15 -20 21 53 0
-48 49 50 51 -52 14 15 -20 -21 71 0
-48 49 50 51 -52 14 -15 20 21 88 0
-48 49 50 51 -52 14 -15 20 -21 73 0
-48 49 50 51 -52 14 -15 -20 21 66 0
-48 49 50 51 -52 14 -15 -20 -21 74 0
-48 49 50 51 -52 -14 15 20 21 56 0
-48 49 50 51 -52 -14 15 20 -21 81 0
-48 49 50 51 -52 -14 15 -20 21 77 0
-48 49 50 51 -52 -14 15 -20 -21 88 0
-48 49 50 51 -52 -14 -15 20 21 84 0
-48 49 50 51 -52 -14 -15 20 -21 89 0
-48 49 50 51 -52 -14 -15 -20 21 84 0
-48 49 50 51 -52 -14 -15 -20 -21 74 0
-48 49 50 -51 52 14 15 20 21 83 0
-48 49 50 -51 52 14 15 20 -21 89 0
-48 49 50 -51 52 14 15 -20 21 53 0
-48 49 50 -51 52 14 15 -20 -21 71 0
-48 49 50 -51 52 14 -15 20 21 88 0
-48 49 50 -51 52 14 -15 20 -21 73 0
-48 49 50 -51 52 14 -15 -20 21 70 0
-48 49 50 -51 52 14 -15 -20 -21 74 0
-48 49 50 -51 52 -14 15 20 21 56 0
-48 49 50 -51 52 -14 15 20 -21 81 0
-48 49 50 -51 52 -14 15 -20 21 68 0
-48 49 50 -51 52 -14 15 -20 -21 88 0
-48 49 50 -51 52 -14 -15 20 21 84 0
-48 49 50 -51 52 -14 -15 20 -21 85 0
-48 49 50 -51 52 -14 -15 -20 21 84 0
-48 49 50 -51 52 -14 -15 -20 -21 74 0
-48 49 50 -51 -52 14 15 20 21 83 0
-48 49 50 -51 -52 14 15 20 -21 89 0
-48 49 50 -51 -52 14 15 -20 21 53 0
-48 49 50 -51 -52 14 15 -20 -21 71 0
-48 49 50 -51 -52 14 -15 20 21 88 0
-48 49 50 -51 -52 14 -15 20 -21 73 0
-48 49 50 -51 -52 14 -15 -20 21 66 0
-48 49 50 -51 -52 14 -15 -20 -21 74 0
-48 49 50 -51 -52 -14 15 20 21 56 0
-48 49 50 -51 -52 -14 15 20 -21 81 0
-48 49 50 -51 -52 -14 15 -20 21 79 0
-48 49 50 -51 -52 -14 15 -20 -21 88 0
-48 49 50 -51 -52 -14 -15 20 21 84 0
-48 49 50 -51 -52 -14 -15 20 -21 89 0
-48 49 50 -51 -52 -14 -15 -20 21 84 0
-48 49 50 -51 -52 -14 -15 -20 -21 74 0
-48 49 -50 51 52 14 15 20 21 83 0
-48 49 -50 51 52 14 15 20 -21 89 0
-48 49 -50 51 52 14 15 -20 21 53 0
-48 49 -50 51 52 14 15 -20 -21 71 0
-48 49 -50 51 52 14 -15 20 21 88 0
-48 49 -50 51 52 14 -15 20 -21 73 0
-48 49 -50 51 52 14 -15 -20 21 66 0
-48 49 -50 51 52 14 -15 -20 -21 80 0
-48 49 -50 51 52 -14 15 20 21 56 0
-48 49 -50 51 52 -14 15 20 -21 81 0
-48 49 -50 51 52 -14 15 -20 21 84 0
-48 49 -50 51 52 -14 15 -20 -21 88 0
-48 49 -50 51 52 -14 -15 20 21 84 0
-48 49 -50 51 52 -14 -15 20 -21 89 0
-48 49 -50 51 52 -14 -15 -20 21 87 0
-48 49 -50 51 52 -14 -15 -20 -21 74 0
-48 49 -50 51 -52 14 15 20 21 83 0
-48 49 -50 51 -52 14 15 20 -21 89 0
-48 49 -50 51 -52 14 15 -20 21 53 0
-48 49 -50 51 -52 14 15 -20 -21 63 0
-48 49 -50 51 -52 14 -15 20 21 88 0
-48 49 -50 51 -52 14 -15 20 -21 73 0
-48 49 -50 51 -52 14 -15 -20 21 66 0
-48 49 -50 51 -52 14 -15 -20 -21 64 0
-48 49 -50 51 -52 -14 15 20 21 56 0
-48 49 -50 51 -52 -14 15 20 -21 81 0
-48 49 -50 51 -52 -14 15 -20 21 84 0
-48 49 -50 51 -52 -14 15 -20 -21 72 0
-48 49 -50 51 -52 -14 -15 20 21 84 0
-48 49 -50 51 -52 -14 -15 20 -21 89 0
-48 49 -50 51 -52 -14 -15 -20 21 77 0
-48 49 -50 51 -52 -14 -15 -20 -21 74 0
-48 49 -50 -51 52 14 15 20 21 83 0
-48 49 -50 -51 52 14 15 20 -21 89 0
-48 49 -50 -51 52 14 15 -20 21 53 0
-48 49 -50 -51 52 14 15 -20 -21 65 0
-48 49 -50 -51 52 14 -15 20 21 88 0
-48 49 -50 -51 52 14 -15 20 -21 73 0
-48 49 -50 -51 52 14 -15 -20 21 66 0
-48 49 -50 -51 52 14 -15 -20 -21 74 0
-48 49 -50 -51 52 -14 15 20 21 56 0
-48 49 -50 -51 52 -14 15 20 -21 81 0
-48 49 -50 -51 52 -14 15 -20 21 84 0
-48 49 -50 -51 52 -14 15 -20 -21 82 0
-48 49 -50 -51 52 -14 -15 20 21 84 0
-48 49 -50 -51 52 -14 -15 20 -21 89 0
-48 49 -50 -51 52 -14 -15 -20 21 68 0
-48 49 -50 -51 52 -14 -15 -20 -21 74 0
-48 49 -50 -51 -52 14 15 20 21 83 0
-48 49 -50 -51 -52 14 15 20 -21 89 0
-48 49 -50 -51 -52 14 15 -20 21 53 0
-48 49 -50 -51 -52 14 15 -20 -21 71 0
-48 49 -50 -51 -52 14 -15 20 21 88 0
-48 49 -50 -51 -52 14 -15 20 -21 73 0
-48 49 -50 -51 -52 14 -15 -20 21 66 0
-48 49 -50 -51 -52 14 -15 -20 -21 74 0
-48 49 -50 -51 -52 -14 15 20 21 56 0
-48 49 -50 -51 -52 -14 15 20 -21 81 0
-48 49 -50 -51 -52 -14 15 -20 21 84 0
-48 49 -50 -51 -52 -14 15 -20 -21 82 0
-48 49 -50 -51 -52 -14 -15 20 21 84 0
-48 49 -50 -51 -52 -14 -15 20 -21 89 0
-48 49 -50 -51 -52 -14 -15 -20 21 77 0
-48 49 -50 -51 -52 -14 -15 -20 -21 74 0
-48 -49 50 51 52 14 15 20 21 83 0
-48 -49 50 51 52 14 15 20 -21 89 0
-48 -49 50 51 52 14 15 -20 21 53 0
-48 -49 50 51 52 14 15 -20 -21 71 0
-48 -49 50 51 52 14 -15 20 21 88 0
-48 -49 50 51 52 14 -15 20 -21 73 0
-48 -49 50 51 52 14 -15 -20 21 66 0
-48 -49 50 51 52 14 -15 -20 -21 74 0
-48 -49 50 51 52 -14 15 20 21 56 0
-48 -49 50 51 52 -14 15 20 -21 81 0
-48 -49 50 51 52 -14 15 -20 21 84 0
-48 -49 50 51 52 -14 15 -20 -21 88 0
-48 -49 50 51 52 -14 -15 20 21 84 0
-48 -49 50 51 52 -14 -15 20 -21 89 0
-48 -49 50 51 52 -14 -15 -20 21 84 0
-48 -49 50 51 52 -14 -15 -20 -21 64 0
-48 -49 50 51 -52 14 15 20 21 83 0
-48 -49 50 51 -52 14 15 20 -21 89 0
-48 -49 50 51 -52 14 15 -20 21 53 0
-48 -49 50 51 -52 14 15 -20 -21 71 0
-48 -49 50 51 -52 14 -15 20 21 88 0
-48 -49 50 51 -52 14 -15 20 -21 73 0
-48 -49 50 51 -52 14 -15 -20 21 66 0
-48 -49 50 51 -52 14 -15 -20 -21 64 0
-48 -49 50 51 -52 -14 15 20 21 56 0
-48 -49 50 51 -52 -14 15 20 -21 81 0
-48 -49 50 51 -52 -14 15 -20 21 84 0
-48 -49 50 51 -52 -14 15 -20 -21 82 0
-48 -49 50 51 -52 -14 -15 20 21 84 0
-48 -49 50 51 -52 -14 -15 20 -21 89 0
-48 -49 50 51 -52 -14 -15 -20 21 84 0
-48 -49 50 51 -52 -14 -15 -20 -21 64 0
-48 -49 50 -51 52 14 15 20 21 83 0
-48 -49 50 -51 52 14 15 20 -21 89 0
-48 -49 50 -51 52 14 15 -20 21 53 0
-48 -49 50 -51 52 14 15 -20 -21 71 0
-48 -49 50 -51 52 14 -15 20 21 88 0
-48 -49 50 -51 52 14 -15 20 -21 73 0
-48 -49 50 -51 52 14 -15 -20 21 66 0
-48 -49 50 -51 52 14 -15 -20 -21 74 0
-48 -49 50 -51 52 -14 15 20 21 56 0
-48 -49 50 -51 52 -14 15 20 -21 81 0
-48 -49 50 -51 52 -14 15 -20 21 84 0
-48 -49 50 -51 52 -14 15 -20 -21 82 0
-48 -49 50 -51 52 -14 -15 20 21 84 0
-48 -49 50 -51 52 -14 -15 20 -21 89 0
-48 -49 50 -51 52 -14 -15 -20 21 84 0
-48 -49 50 -51 52 -14 -15 -20 -21 80 0
-48 -49 50 -51 -52 14 15 20 21 83 0
-48 -49 50 -51 -52 14 15 20 -21 89 0
-48 -49 50 -51 -52 14 15 -20 21 53 0
-48 -49 50 -51 -52 14 15 -20 -21 71 0
-48 -49 50 -51 -52 14 -15 20 21 88 0
-48 -49 50 -51 -52 14 -15 20 -21 73 0
-48 -49 50 -51 -52 14 -15 -20 21 66 0
-48 -49 50 -51 -52 14 -15 -20 -21 64 0
-48 -49 50 -51 -52 -14 15 20 21 56 0
-48 -49 50 -51 -52 -14 15 20 -21 81 0
-48 -49 50 -51 -52 -14 15 -20 21 84 0
-48 -49 50 -51 -52 -14 15 -20 -21 82 0
-48 -49 50 -51 -52 -14 -15 20 21 84 0
-48 -49 50 -51 -52 -14 -15 20 -21 89 0
-48 -49 50 -51 -52 -14 -15 -20 21 84 0
-48 -49 50 -51 -52 -14 -15 -20 -21 64 0
-48 -49 -50 51 52 0
-48 -49 -50 51 -52 0
-48 -49 -50 -51 52 0
-48 -49 -50 -51 -52 0
